25 24 81 32 75 65 66 18 19 92 83 86 88 61 4 7 24 71 29 56 69 2 32 35 77 27 14 80 52 31 45 30 5 27 15 59 70 14 37 38 51 48 20 10 38 97 14 19 24 11 36 57 85 22 65 47 52 41 21 48 65 84 3 77 85 37 62 26 38 88 22 29 62 9 28 48 89 87 67 53 15 22 17 70 55 42 14 41 49 45 96 60 39 84 5 51 99 57 17 8 